c "917710.clq"
p edge 204 3008
e 1 17
e 1 18
e 1 19
e 1 20
e 1 21
e 1 27
e 1 28
e 1 33
e 1 35
e 1 39
e 1 43
e 1 44
e 1 51
e 1 59
e 1 60
e 1 70
e 1 79
e 1 83
e 1 96
e 1 114
e 1 117
e 1 119
e 1 132
e 1 133
e 1 148
e 1 162
e 1 175
e 1 181
e 2 17
e 2 18
e 2 19
e 2 20
e 2 22
e 2 23
e 2 24
e 2 25
e 2 27
e 2 30
e 2 32
e 2 35
e 2 37
e 2 38
e 2 40
e 2 43
e 2 48
e 2 52
e 2 55
e 2 56
e 2 57
e 2 59
e 2 60
e 2 65
e 2 66
e 2 71
e 2 75
e 2 76
e 2 82
e 2 84
e 2 92
e 2 96
e 2 102
e 2 108
e 2 109
e 2 116
e 2 123
e 2 126
e 2 134
e 2 140
e 2 146
e 2 149
e 2 154
e 2 161
e 2 182
e 2 184
e 2 199
e 2 204
e 3 17
e 3 19
e 3 20
e 3 21
e 3 24
e 3 25
e 3 26
e 3 27
e 3 28
e 3 29
e 3 33
e 3 37
e 3 38
e 3 40
e 3 43
e 3 45
e 3 53
e 3 54
e 3 64
e 3 67
e 3 72
e 3 75
e 3 82
e 3 88
e 3 114
e 3 116
e 3 133
e 3 144
e 3 154
e 3 166
e 3 181
e 3 186
e 3 203
e 3 204
e 4 17
e 4 18
e 4 19
e 4 20
e 4 22
e 4 24
e 4 25
e 4 26
e 4 28
e 4 35
e 4 36
e 4 37
e 4 40
e 4 41
e 4 45
e 4 51
e 4 65
e 4 68
e 4 88
e 4 104
e 4 105
e 4 107
e 4 110
e 4 144
e 4 147
e 4 159
e 4 193
e 5 17
e 5 18
e 5 19
e 5 22
e 5 23
e 5 46
e 5 57
e 5 67
e 5 95
e 5 99
e 5 101
e 5 104
e 5 116
e 5 143
e 5 148
e 5 160
e 5 185
e 6 17
e 6 18
e 6 19
e 6 21
e 6 22
e 6 24
e 6 25
e 6 30
e 6 32
e 6 33
e 6 39
e 6 40
e 6 42
e 6 55
e 6 62
e 6 63
e 6 65
e 6 68
e 6 70
e 6 75
e 6 84
e 6 91
e 6 94
e 6 97
e 6 103
e 6 105
e 6 110
e 6 116
e 6 137
e 6 139
e 6 161
e 6 162
e 6 169
e 6 174
e 6 178
e 6 181
e 7 17
e 7 18
e 7 19
e 7 20
e 7 21
e 7 22
e 7 23
e 7 25
e 7 27
e 7 30
e 7 31
e 7 44
e 7 48
e 7 51
e 7 52
e 7 66
e 7 85
e 7 87
e 7 91
e 7 99
e 7 101
e 7 102
e 7 107
e 7 118
e 7 121
e 7 124
e 7 142
e 7 146
e 7 169
e 7 192
e 7 200
e 8 17
e 8 18
e 8 22
e 8 23
e 8 26
e 8 27
e 8 38
e 8 39
e 8 47
e 8 88
e 8 98
e 8 107
e 8 111
e 8 122
e 8 147
e 8 188
e 8 192
e 8 194
e 9 17
e 9 18
e 9 19
e 9 20
e 9 21
e 9 22
e 9 23
e 9 24
e 9 27
e 9 28
e 9 31
e 9 34
e 9 35
e 9 37
e 9 53
e 9 54
e 9 58
e 9 59
e 9 74
e 9 76
e 9 78
e 9 82
e 9 89
e 9 96
e 9 109
e 9 114
e 9 119
e 9 123
e 9 124
e 9 126
e 9 141
e 9 150
e 9 156
e 9 159
e 9 190
e 9 197
e 9 203
e 10 17
e 10 18
e 10 19
e 10 20
e 10 21
e 10 22
e 10 23
e 10 24
e 10 26
e 10 28
e 10 29
e 10 30
e 10 32
e 10 33
e 10 34
e 10 35
e 10 36
e 10 41
e 10 43
e 10 44
e 10 47
e 10 48
e 10 51
e 10 59
e 10 60
e 10 62
e 10 64
e 10 68
e 10 70
e 10 107
e 10 109
e 10 120
e 10 126
e 10 136
e 10 142
e 10 149
e 10 157
e 10 185
e 10 194
e 11 17
e 11 18
e 11 19
e 11 20
e 11 21
e 11 22
e 11 23
e 11 24
e 11 25
e 11 27
e 11 28
e 11 29
e 11 30
e 11 31
e 11 35
e 11 36
e 11 37
e 11 39
e 11 41
e 11 42
e 11 45
e 11 48
e 11 50
e 11 51
e 11 56
e 11 57
e 11 60
e 11 62
e 11 69
e 11 72
e 11 75
e 11 83
e 11 87
e 11 90
e 11 92
e 11 95
e 11 98
e 11 101
e 11 105
e 11 106
e 11 112
e 11 113
e 11 128
e 11 129
e 11 136
e 11 138
e 11 139
e 11 145
e 11 150
e 11 152
e 11 155
e 11 156
e 11 159
e 11 165
e 11 167
e 11 171
e 11 174
e 11 177
e 11 193
e 12 17
e 12 18
e 12 19
e 12 20
e 12 21
e 12 22
e 12 24
e 12 31
e 12 32
e 12 34
e 12 35
e 12 37
e 12 41
e 12 42
e 12 44
e 12 46
e 12 49
e 12 50
e 12 53
e 12 54
e 12 63
e 12 72
e 12 73
e 12 82
e 12 83
e 12 86
e 12 87
e 12 89
e 12 92
e 12 96
e 12 98
e 12 99
e 12 100
e 12 103
e 12 104
e 12 114
e 12 118
e 12 120
e 12 132
e 12 139
e 12 162
e 12 164
e 12 165
e 12 168
e 12 172
e 12 173
e 12 174
e 12 175
e 13 17
e 13 18
e 13 19
e 13 20
e 13 21
e 13 23
e 13 24
e 13 31
e 13 34
e 13 36
e 13 49
e 13 63
e 13 65
e 13 73
e 13 94
e 13 102
e 13 106
e 13 111
e 13 124
e 13 128
e 13 133
e 13 141
e 13 158
e 13 164
e 13 201
e 14 17
e 14 18
e 14 19
e 14 20
e 14 21
e 14 23
e 14 26
e 14 27
e 14 28
e 14 31
e 14 32
e 14 34
e 14 35
e 14 45
e 14 46
e 14 49
e 14 54
e 14 60
e 14 62
e 14 63
e 14 64
e 14 74
e 14 80
e 14 81
e 14 91
e 14 94
e 14 98
e 14 113
e 14 116
e 14 124
e 14 128
e 14 129
e 14 134
e 14 140
e 14 143
e 14 144
e 14 166
e 14 171
e 14 181
e 14 186
e 14 203
e 15 17
e 15 18
e 15 19
e 15 20
e 15 21
e 15 22
e 15 23
e 15 24
e 15 25
e 15 26
e 15 27
e 15 28
e 15 29
e 15 30
e 15 31
e 15 32
e 15 33
e 15 34
e 15 35
e 15 37
e 15 38
e 15 39
e 15 40
e 15 41
e 15 44
e 15 45
e 15 46
e 15 48
e 15 49
e 15 52
e 15 54
e 15 60
e 15 61
e 15 65
e 15 72
e 15 74
e 15 75
e 15 77
e 15 80
e 15 81
e 15 84
e 15 85
e 15 92
e 15 95
e 15 100
e 15 108
e 15 119
e 15 122
e 15 123
e 15 125
e 15 127
e 15 129
e 15 134
e 15 135
e 15 138
e 15 139
e 15 140
e 15 151
e 15 155
e 15 156
e 15 159
e 15 167
e 15 175
e 15 179
e 15 182
e 15 193
e 16 17
e 16 18
e 16 20
e 16 21
e 16 22
e 16 23
e 16 25
e 16 26
e 16 28
e 16 29
e 16 31
e 16 33
e 16 41
e 16 49
e 16 59
e 16 63
e 16 70
e 16 72
e 16 84
e 16 86
e 16 90
e 16 92
e 16 101
e 16 103
e 16 115
e 16 153
e 16 154
e 16 157
e 16 159
e 16 164
e 16 173
e 16 182
e 16 186
e 16 196
e 17 18
e 17 19
e 17 20
e 17 21
e 17 22
e 17 23
e 17 24
e 17 25
e 17 26
e 17 27
e 17 28
e 17 29
e 17 30
e 17 31
e 17 32
e 17 33
e 17 34
e 17 35
e 17 36
e 17 38
e 17 39
e 17 40
e 17 41
e 17 42
e 17 43
e 17 48
e 17 49
e 17 50
e 17 51
e 17 52
e 17 54
e 17 56
e 17 57
e 17 58
e 17 59
e 17 61
e 17 69
e 17 71
e 17 72
e 17 75
e 17 77
e 17 79
e 17 84
e 17 86
e 17 87
e 17 95
e 17 99
e 17 100
e 17 101
e 17 105
e 17 106
e 17 108
e 17 111
e 17 114
e 17 117
e 17 120
e 17 122
e 17 126
e 17 127
e 17 134
e 17 136
e 17 139
e 17 141
e 17 142
e 17 143
e 17 145
e 17 146
e 17 148
e 17 154
e 17 156
e 17 158
e 17 161
e 17 176
e 17 181
e 17 191
e 17 192
e 17 199
e 17 200
e 17 202
e 18 19
e 18 20
e 18 21
e 18 22
e 18 23
e 18 24
e 18 25
e 18 26
e 18 28
e 18 29
e 18 30
e 18 31
e 18 32
e 18 37
e 18 39
e 18 40
e 18 44
e 18 45
e 18 47
e 18 48
e 18 50
e 18 51
e 18 53
e 18 54
e 18 56
e 18 57
e 18 59
e 18 61
e 18 67
e 18 68
e 18 69
e 18 71
e 18 74
e 18 75
e 18 78
e 18 80
e 18 85
e 18 86
e 18 89
e 18 94
e 18 95
e 18 97
e 18 98
e 18 99
e 18 104
e 18 105
e 18 106
e 18 108
e 18 109
e 18 110
e 18 113
e 18 122
e 18 125
e 18 133
e 18 134
e 18 140
e 18 141
e 18 143
e 18 148
e 18 156
e 18 157
e 19 20
e 19 21
e 19 22
e 19 23
e 19 24
e 19 25
e 19 26
e 19 27
e 19 28
e 19 29
e 19 31
e 19 32
e 19 34
e 19 35
e 19 39
e 19 41
e 19 42
e 19 45
e 19 47
e 19 49
e 19 50
e 19 51
e 19 52
e 19 56
e 19 62
e 19 63
e 19 66
e 19 67
e 19 68
e 19 69
e 19 76
e 19 85
e 19 89
e 19 98
e 19 104
e 19 112
e 19 114
e 19 118
e 19 119
e 19 124
e 19 127
e 19 131
e 19 133
e 19 135
e 19 140
e 19 141
e 19 142
e 19 146
e 19 147
e 19 150
e 19 162
e 19 167
e 19 170
e 19 171
e 19 174
e 19 180
e 19 190
e 19 191
e 19 196
e 19 197
e 19 198
e 19 202
e 19 203
e 19 204
e 20 21
e 20 24
e 20 25
e 20 26
e 20 27
e 20 29
e 20 30
e 20 31
e 20 33
e 20 36
e 20 37
e 20 39
e 20 41
e 20 43
e 20 45
e 20 46
e 20 51
e 20 53
e 20 55
e 20 56
e 20 58
e 20 61
e 20 64
e 20 65
e 20 67
e 20 77
e 20 81
e 20 86
e 20 87
e 20 88
e 20 89
e 20 90
e 20 93
e 20 96
e 20 100
e 20 101
e 20 102
e 20 104
e 20 106
e 20 108
e 20 110
e 20 112
e 20 115
e 20 116
e 20 117
e 20 120
e 20 121
e 20 123
e 20 124
e 20 128
e 20 134
e 20 135
e 20 136
e 20 142
e 20 148
e 20 150
e 20 155
e 20 156
e 20 157
e 20 158
e 20 160
e 20 161
e 20 164
e 20 165
e 20 167
e 20 168
e 20 172
e 20 176
e 20 181
e 20 184
e 20 186
e 20 188
e 20 190
e 20 192
e 20 196
e 20 200
e 20 203
e 20 204
e 21 22
e 21 23
e 21 24
e 21 25
e 21 26
e 21 27
e 21 28
e 21 29
e 21 30
e 21 31
e 21 32
e 21 33
e 21 34
e 21 35
e 21 36
e 21 37
e 21 40
e 21 41
e 21 45
e 21 46
e 21 47
e 21 48
e 21 51
e 21 53
e 21 54
e 21 61
e 21 62
e 21 63
e 21 64
e 21 66
e 21 68
e 21 69
e 21 71
e 21 72
e 21 73
e 21 76
e 21 77
e 21 78
e 21 80
e 21 82
e 21 83
e 21 90
e 21 91
e 21 92
e 21 93
e 21 95
e 21 98
e 21 100
e 21 114
e 21 115
e 21 116
e 21 119
e 21 120
e 21 122
e 21 125
e 21 137
e 21 139
e 21 140
e 21 145
e 21 147
e 21 149
e 21 150
e 21 153
e 21 157
e 21 162
e 21 169
e 21 172
e 21 178
e 21 187
e 21 189
e 21 197
e 21 201
e 21 202
e 21 204
e 22 23
e 22 24
e 22 25
e 22 26
e 22 28
e 22 29
e 22 30
e 22 34
e 22 36
e 22 37
e 22 39
e 22 40
e 22 42
e 22 45
e 22 51
e 22 53
e 22 60
e 22 62
e 22 63
e 22 64
e 22 67
e 22 70
e 22 73
e 22 75
e 22 76
e 22 79
e 22 80
e 22 81
e 22 82
e 22 87
e 22 89
e 22 91
e 22 93
e 22 100
e 22 105
e 22 113
e 22 115
e 22 119
e 22 120
e 22 122
e 22 131
e 22 137
e 22 144
e 22 150
e 22 166
e 22 170
e 22 176
e 22 187
e 22 188
e 22 190
e 22 194
e 22 196
e 22 201
e 22 204
e 23 25
e 23 26
e 23 29
e 23 30
e 23 33
e 23 35
e 23 38
e 23 39
e 23 40
e 23 41
e 23 42
e 23 43
e 23 45
e 23 46
e 23 47
e 23 51
e 23 52
e 23 53
e 23 54
e 23 58
e 23 60
e 23 65
e 23 68
e 23 69
e 23 71
e 23 73
e 23 74
e 23 76
e 23 78
e 23 79
e 23 81
e 23 85
e 23 97
e 23 98
e 23 104
e 23 107
e 23 109
e 23 111
e 23 112
e 23 114
e 23 115
e 23 118
e 23 125
e 23 130
e 23 131
e 23 134
e 23 136
e 23 154
e 23 156
e 23 163
e 23 165
e 23 168
e 23 172
e 23 173
e 23 179
e 23 183
e 23 184
e 23 187
e 23 189
e 23 191
e 23 198
e 23 204
e 24 25
e 24 26
e 24 27
e 24 28
e 24 29
e 24 30
e 24 32
e 24 33
e 24 34
e 24 37
e 24 39
e 24 43
e 24 44
e 24 47
e 24 49
e 24 50
e 24 53
e 24 54
e 24 55
e 24 56
e 24 57
e 24 63
e 24 65
e 24 67
e 24 70
e 24 73
e 24 75
e 24 81
e 24 89
e 24 90
e 24 95
e 24 96
e 24 97
e 24 100
e 24 104
e 24 105
e 24 106
e 24 107
e 24 108
e 24 109
e 24 111
e 24 115
e 24 129
e 24 130
e 24 131
e 24 135
e 24 139
e 24 147
e 24 148
e 24 149
e 24 156
e 24 165
e 24 171
e 24 172
e 24 173
e 24 175
e 24 180
e 24 181
e 24 184
e 24 187
e 24 193
e 24 195
e 24 201
e 24 202
e 25 26
e 25 27
e 25 28
e 25 29
e 25 30
e 25 32
e 25 36
e 25 37
e 25 38
e 25 40
e 25 42
e 25 44
e 25 47
e 25 52
e 25 56
e 25 59
e 25 60
e 25 70
e 25 77
e 25 79
e 25 91
e 25 99
e 25 103
e 25 122
e 25 134
e 25 137
e 25 144
e 25 154
e 25 158
e 25 160
e 25 179
e 25 183
e 25 196
e 25 199
e 25 204
e 26 27
e 26 30
e 26 31
e 26 32
e 26 33
e 26 34
e 26 35
e 26 36
e 26 37
e 26 38
e 26 39
e 26 42
e 26 44
e 26 46
e 26 48
e 26 50
e 26 52
e 26 53
e 26 55
e 26 56
e 26 59
e 26 60
e 26 62
e 26 64
e 26 66
e 26 72
e 26 73
e 26 78
e 26 79
e 26 81
e 26 86
e 26 90
e 26 92
e 26 97
e 26 102
e 26 113
e 26 122
e 26 126
e 26 127
e 26 128
e 26 130
e 26 137
e 26 140
e 26 145
e 26 155
e 26 156
e 26 162
e 26 168
e 26 174
e 26 180
e 26 182
e 26 189
e 26 193
e 26 199
e 26 202
e 27 29
e 27 32
e 27 33
e 27 35
e 27 36
e 27 37
e 27 38
e 27 40
e 27 41
e 27 42
e 27 43
e 27 44
e 27 46
e 27 57
e 27 63
e 27 68
e 27 76
e 27 77
e 27 80
e 27 83
e 27 88
e 27 93
e 27 95
e 27 96
e 27 100
e 27 101
e 27 103
e 27 111
e 27 113
e 27 127
e 27 131
e 27 136
e 27 143
e 27 162
e 27 167
e 27 171
e 27 174
e 27 176
e 27 180
e 27 189
e 27 191
e 27 198
e 27 201
e 27 203
e 28 29
e 28 31
e 28 32
e 28 33
e 28 34
e 28 36
e 28 38
e 28 40
e 28 41
e 28 43
e 28 45
e 28 46
e 28 48
e 28 58
e 28 60
e 28 62
e 28 64
e 28 66
e 28 72
e 28 76
e 28 80
e 28 83
e 28 85
e 28 86
e 28 95
e 28 96
e 28 97
e 28 98
e 28 104
e 28 105
e 28 106
e 28 108
e 28 109
e 28 117
e 28 121
e 28 126
e 28 127
e 28 129
e 28 133
e 28 135
e 28 137
e 28 142
e 28 146
e 28 151
e 28 153
e 28 164
e 28 171
e 28 174
e 28 176
e 28 177
e 28 182
e 28 183
e 28 184
e 28 188
e 28 191
e 28 203
e 29 30
e 29 31
e 29 33
e 29 36
e 29 38
e 29 42
e 29 48
e 29 49
e 29 52
e 29 54
e 29 60
e 29 69
e 29 73
e 29 76
e 29 78
e 29 93
e 29 96
e 29 98
e 29 99
e 29 102
e 29 104
e 29 107
e 29 108
e 29 112
e 29 128
e 29 132
e 29 147
e 29 162
e 29 173
e 29 185
e 29 194
e 30 32
e 30 34
e 30 36
e 30 38
e 30 39
e 30 47
e 30 49
e 30 53
e 30 54
e 30 56
e 30 60
e 30 61
e 30 62
e 30 65
e 30 67
e 30 68
e 30 69
e 30 72
e 30 74
e 30 102
e 30 112
e 30 124
e 30 129
e 30 131
e 30 139
e 30 147
e 30 158
e 30 163
e 30 166
e 30 170
e 30 180
e 30 184
e 30 192
e 30 195
e 30 202
e 31 33
e 31 34
e 31 36
e 31 38
e 31 40
e 31 42
e 31 43
e 31 44
e 31 45
e 31 46
e 31 48
e 31 50
e 31 51
e 31 52
e 31 58
e 31 77
e 31 80
e 31 81
e 31 84
e 31 93
e 31 94
e 31 101
e 31 113
e 31 116
e 31 124
e 31 126
e 31 135
e 31 141
e 31 145
e 31 147
e 31 149
e 31 161
e 31 162
e 31 164
e 31 165
e 31 167
e 31 183
e 31 197
e 32 34
e 32 38
e 32 44
e 32 46
e 32 48
e 32 49
e 32 50
e 32 52
e 32 53
e 32 60
e 32 63
e 32 64
e 32 65
e 32 66
e 32 71
e 32 74
e 32 78
e 32 80
e 32 84
e 32 85
e 32 93
e 32 97
e 32 98
e 32 103
e 32 114
e 32 118
e 32 122
e 32 125
e 32 128
e 32 147
e 32 149
e 32 156
e 32 182
e 32 190
e 33 35
e 33 36
e 33 37
e 33 38
e 33 45
e 33 49
e 33 50
e 33 52
e 33 54
e 33 55
e 33 61
e 33 69
e 33 74
e 33 77
e 33 81
e 33 86
e 33 94
e 33 97
e 33 98
e 33 110
e 33 122
e 33 133
e 33 146
e 33 148
e 33 150
e 33 151
e 33 176
e 33 177
e 33 196
e 34 40
e 34 41
e 34 43
e 34 44
e 34 45
e 34 46
e 34 47
e 34 48
e 34 49
e 34 52
e 34 53
e 34 62
e 34 63
e 34 64
e 34 66
e 34 72
e 34 73
e 34 79
e 34 80
e 34 81
e 34 82
e 34 90
e 34 92
e 34 101
e 34 105
e 34 110
e 34 117
e 34 119
e 34 121
e 34 123
e 34 129
e 34 132
e 34 142
e 34 148
e 34 151
e 34 152
e 34 157
e 34 160
e 34 165
e 34 168
e 34 169
e 34 179
e 34 183
e 34 194
e 34 201
e 34 204
e 35 38
e 35 41
e 35 42
e 35 49
e 35 54
e 35 57
e 35 59
e 35 66
e 35 71
e 35 79
e 35 84
e 35 93
e 35 95
e 35 99
e 35 103
e 35 109
e 35 112
e 35 119
e 35 123
e 35 125
e 35 129
e 35 146
e 35 156
e 35 159
e 35 160
e 35 165
e 35 169
e 35 170
e 35 178
e 35 192
e 35 195
e 35 202
e 36 43
e 36 48
e 36 56
e 36 58
e 36 79
e 36 80
e 36 81
e 36 83
e 36 86
e 36 108
e 36 113
e 36 125
e 36 127
e 36 134
e 36 142
e 36 144
e 36 146
e 36 159
e 36 167
e 36 177
e 36 184
e 36 188
e 36 193
e 37 39
e 37 40
e 37 43
e 37 46
e 37 47
e 37 49
e 37 50
e 37 54
e 37 59
e 37 61
e 37 65
e 37 67
e 37 68
e 37 69
e 37 71
e 37 72
e 37 81
e 37 82
e 37 83
e 37 87
e 37 90
e 37 91
e 37 99
e 37 100
e 37 102
e 37 104
e 37 109
e 37 110
e 37 117
e 37 131
e 37 134
e 37 138
e 37 139
e 37 143
e 37 149
e 37 151
e 37 157
e 37 162
e 37 163
e 37 166
e 37 172
e 37 173
e 37 178
e 37 179
e 37 194
e 37 196
e 37 199
e 38 39
e 38 44
e 38 46
e 38 47
e 38 50
e 38 51
e 38 55
e 38 57
e 38 60
e 38 61
e 38 63
e 38 74
e 38 75
e 38 85
e 38 89
e 38 92
e 38 107
e 38 118
e 38 119
e 38 125
e 38 132
e 38 134
e 38 142
e 38 143
e 38 145
e 38 150
e 38 151
e 38 158
e 38 164
e 38 171
e 38 179
e 38 180
e 38 185
e 38 188
e 38 196
e 38 198
e 38 202
e 39 42
e 39 43
e 39 47
e 39 50
e 39 55
e 39 56
e 39 58
e 39 61
e 39 67
e 39 69
e 39 72
e 39 73
e 39 79
e 39 85
e 39 86
e 39 87
e 39 94
e 39 97
e 39 100
e 39 104
e 39 115
e 39 120
e 39 127
e 39 130
e 39 131
e 39 137
e 39 140
e 39 144
e 39 146
e 39 154
e 39 157
e 39 162
e 39 169
e 39 174
e 39 177
e 39 197
e 40 41
e 40 42
e 40 43
e 40 44
e 40 45
e 40 48
e 40 51
e 40 55
e 40 57
e 40 61
e 40 65
e 40 66
e 40 67
e 40 69
e 40 71
e 40 74
e 40 78
e 40 81
e 40 83
e 40 91
e 40 93
e 40 102
e 40 108
e 40 110
e 40 112
e 40 115
e 40 116
e 40 117
e 40 118
e 40 119
e 40 134
e 40 137
e 40 144
e 40 146
e 40 150
e 40 160
e 40 161
e 40 178
e 40 188
e 40 189
e 40 196
e 40 201
e 40 203
e 41 42
e 41 44
e 41 46
e 41 50
e 41 52
e 41 55
e 41 56
e 41 61
e 41 62
e 41 65
e 41 71
e 41 73
e 41 77
e 41 78
e 41 87
e 41 91
e 41 93
e 41 94
e 41 111
e 41 119
e 41 121
e 41 123
e 41 124
e 41 137
e 41 143
e 41 155
e 41 158
e 41 159
e 41 163
e 41 173
e 41 189
e 42 47
e 42 57
e 42 62
e 42 74
e 42 81
e 42 88
e 42 90
e 42 108
e 42 115
e 42 117
e 42 119
e 42 129
e 42 132
e 42 133
e 42 140
e 42 146
e 42 149
e 42 150
e 42 153
e 42 163
e 42 165
e 42 175
e 42 179
e 42 191
e 42 196
e 43 47
e 43 50
e 43 56
e 43 58
e 43 59
e 43 64
e 43 66
e 43 70
e 43 73
e 43 75
e 43 80
e 43 82
e 43 87
e 43 92
e 43 96
e 43 97
e 43 106
e 43 107
e 43 111
e 43 116
e 43 126
e 43 127
e 43 128
e 43 129
e 43 130
e 43 133
e 43 135
e 43 138
e 43 140
e 43 141
e 43 148
e 43 151
e 43 155
e 43 166
e 43 169
e 43 175
e 43 176
e 43 179
e 43 189
e 43 190
e 43 191
e 43 203
e 44 55
e 44 56
e 44 57
e 44 72
e 44 76
e 44 77
e 44 79
e 44 85
e 44 88
e 44 89
e 44 93
e 44 117
e 44 122
e 44 143
e 44 145
e 44 146
e 44 156
e 44 161
e 44 163
e 44 164
e 44 167
e 44 172
e 44 180
e 44 184
e 44 187
e 44 194
e 45 47
e 45 52
e 45 57
e 45 82
e 45 86
e 45 91
e 45 95
e 45 110
e 45 111
e 45 112
e 45 114
e 45 127
e 45 129
e 45 152
e 45 153
e 45 177
e 45 179
e 45 196
e 46 50
e 46 55
e 46 57
e 46 58
e 46 59
e 46 62
e 46 64
e 46 66
e 46 68
e 46 74
e 46 80
e 46 82
e 46 83
e 46 88
e 46 89
e 46 90
e 46 97
e 46 100
e 46 101
e 46 114
e 46 120
e 46 125
e 46 136
e 46 148
e 46 149
e 46 153
e 46 160
e 46 174
e 46 178
e 46 179
e 46 200
e 47 49
e 47 53
e 47 55
e 47 61
e 47 67
e 47 77
e 47 82
e 47 84
e 47 85
e 47 91
e 47 99
e 47 112
e 47 115
e 47 117
e 47 119
e 47 127
e 47 128
e 47 138
e 47 139
e 47 149
e 47 150
e 47 152
e 47 154
e 47 155
e 47 160
e 47 163
e 47 171
e 47 180
e 47 186
e 47 187
e 48 51
e 48 52
e 48 53
e 48 59
e 48 61
e 48 63
e 48 64
e 48 75
e 48 77
e 48 79
e 48 89
e 48 91
e 48 106
e 48 108
e 48 109
e 48 110
e 48 118
e 48 132
e 48 144
e 48 152
e 48 158
e 48 159
e 48 166
e 48 175
e 48 177
e 48 180
e 48 200
e 48 204
e 49 53
e 49 57
e 49 58
e 49 68
e 49 70
e 49 74
e 49 77
e 49 88
e 49 94
e 49 103
e 49 105
e 49 111
e 49 118
e 49 130
e 49 132
e 49 134
e 49 182
e 49 192
e 50 57
e 50 67
e 50 70
e 50 71
e 50 79
e 50 86
e 50 96
e 50 130
e 50 138
e 50 139
e 50 158
e 50 165
e 50 190
e 51 55
e 51 56
e 51 58
e 51 60
e 51 68
e 51 69
e 51 80
e 51 81
e 51 86
e 51 95
e 51 120
e 51 149
e 51 153
e 51 164
e 51 184
e 51 195
e 52 54
e 52 55
e 52 58
e 52 59
e 52 62
e 52 63
e 52 67
e 52 68
e 52 72
e 52 75
e 52 84
e 52 85
e 52 88
e 52 91
e 52 95
e 52 109
e 52 114
e 52 130
e 52 141
e 52 143
e 52 147
e 52 155
e 52 158
e 52 161
e 52 188
e 52 190
e 52 193
e 52 194
e 52 198
e 52 200
e 52 201
e 53 58
e 53 64
e 53 70
e 53 95
e 53 107
e 53 114
e 53 122
e 53 135
e 53 155
e 53 172
e 53 189
e 53 203
e 54 55
e 54 65
e 54 70
e 54 71
e 54 77
e 54 79
e 54 83
e 54 85
e 54 86
e 54 129
e 54 140
e 54 142
e 54 147
e 54 148
e 54 163
e 54 171
e 54 179
e 54 180
e 54 186
e 54 188
e 55 58
e 55 71
e 55 73
e 55 76
e 55 77
e 55 86
e 55 88
e 55 92
e 55 99
e 55 108
e 55 116
e 55 127
e 55 136
e 55 142
e 55 146
e 55 161
e 55 164
e 55 171
e 55 193
e 56 58
e 56 71
e 56 76
e 56 90
e 56 93
e 56 94
e 56 113
e 56 121
e 56 128
e 56 130
e 56 131
e 56 137
e 56 158
e 56 177
e 56 180
e 56 183
e 56 186
e 56 195
e 56 198
e 57 59
e 57 61
e 57 66
e 57 67
e 57 68
e 57 70
e 57 71
e 57 75
e 57 78
e 57 83
e 57 84
e 57 87
e 57 99
e 57 109
e 57 111
e 57 120
e 57 121
e 57 122
e 57 124
e 57 125
e 57 139
e 57 149
e 57 157
e 57 160
e 57 161
e 57 164
e 57 167
e 57 168
e 57 184
e 57 192
e 57 194
e 57 196
e 58 61
e 58 62
e 58 64
e 58 83
e 58 87
e 58 90
e 58 93
e 58 105
e 58 136
e 58 145
e 58 184
e 58 191
e 59 69
e 59 73
e 59 74
e 59 87
e 59 88
e 59 90
e 59 97
e 59 101
e 59 116
e 59 125
e 59 135
e 59 147
e 59 163
e 59 166
e 59 167
e 59 194
e 60 64
e 60 65
e 60 97
e 60 110
e 60 123
e 60 126
e 60 132
e 60 138
e 60 143
e 60 145
e 60 161
e 61 76
e 61 78
e 61 82
e 61 89
e 61 91
e 61 97
e 61 99
e 61 105
e 61 107
e 61 116
e 61 120
e 61 128
e 61 137
e 61 138
e 61 142
e 61 146
e 61 165
e 61 166
e 61 179
e 61 180
e 61 182
e 61 188
e 61 197
e 61 201
e 61 204
e 62 63
e 62 66
e 62 70
e 62 78
e 62 79
e 62 82
e 62 98
e 62 102
e 62 105
e 62 114
e 62 116
e 62 119
e 62 121
e 62 122
e 62 140
e 62 149
e 62 160
e 62 163
e 62 174
e 62 176
e 62 179
e 62 187
e 62 188
e 62 194
e 62 198
e 62 199
e 63 69
e 63 70
e 63 88
e 63 89
e 63 93
e 63 105
e 63 132
e 63 143
e 63 153
e 63 160
e 63 168
e 63 185
e 63 189
e 63 198
e 64 65
e 64 66
e 64 70
e 64 74
e 64 77
e 64 78
e 64 82
e 64 83
e 64 92
e 64 94
e 64 102
e 64 121
e 64 123
e 64 142
e 64 149
e 64 151
e 64 154
e 64 174
e 64 175
e 64 176
e 64 187
e 64 195
e 65 66
e 65 74
e 65 92
e 65 101
e 65 103
e 65 111
e 65 123
e 65 126
e 65 136
e 65 151
e 66 67
e 66 68
e 66 84
e 66 94
e 66 96
e 66 100
e 66 101
e 66 106
e 66 108
e 66 118
e 66 122
e 66 128
e 66 138
e 66 141
e 66 147
e 66 165
e 66 174
e 66 189
e 66 194
e 67 75
e 67 101
e 67 111
e 67 113
e 67 124
e 67 126
e 67 135
e 67 171
e 67 172
e 67 185
e 67 190
e 68 69
e 68 76
e 68 94
e 68 109
e 68 115
e 68 133
e 68 174
e 69 73
e 69 76
e 69 87
e 69 89
e 69 106
e 69 121
e 69 141
e 69 145
e 69 165
e 69 183
e 69 185
e 69 186
e 69 191
e 69 193
e 69 198
e 70 71
e 70 72
e 70 81
e 70 84
e 70 85
e 70 90
e 70 95
e 70 112
e 70 113
e 70 121
e 70 132
e 70 138
e 70 145
e 70 148
e 70 166
e 70 167
e 70 169
e 70 171
e 70 175
e 70 191
e 70 193
e 70 200
e 71 75
e 71 85
e 71 88
e 71 101
e 71 126
e 71 130
e 71 133
e 71 136
e 71 145
e 71 167
e 71 168
e 71 180
e 71 199
e 71 202
e 71 203
e 72 73
e 72 79
e 72 82
e 72 84
e 72 91
e 72 96
e 72 107
e 72 125
e 72 158
e 72 182
e 72 200
e 73 103
e 73 109
e 73 118
e 73 119
e 73 127
e 73 137
e 73 146
e 73 148
e 73 150
e 73 153
e 73 178
e 73 192
e 74 76
e 74 78
e 74 80
e 74 105
e 74 135
e 74 138
e 74 149
e 74 156
e 74 158
e 74 174
e 74 178
e 74 188
e 75 78
e 75 153
e 75 178
e 76 83
e 76 84
e 76 86
e 76 99
e 76 106
e 76 112
e 76 123
e 76 133
e 76 137
e 76 156
e 77 78
e 77 80
e 77 100
e 77 105
e 77 112
e 77 132
e 77 144
e 77 152
e 77 183
e 78 107
e 78 121
e 78 127
e 78 132
e 78 145
e 78 170
e 79 83
e 79 87
e 79 94
e 79 100
e 79 112
e 79 115
e 79 131
e 79 134
e 79 151
e 79 154
e 79 163
e 79 177
e 79 180
e 79 182
e 79 189
e 80 96
e 80 100
e 80 103
e 80 126
e 80 140
e 80 152
e 80 168
e 80 178
e 80 182
e 81 84
e 81 99
e 81 110
e 81 114
e 81 115
e 81 116
e 81 117
e 81 123
e 81 124
e 81 131
e 81 163
e 81 165
e 81 171
e 81 181
e 81 188
e 82 85
e 82 88
e 82 89
e 82 103
e 82 106
e 82 110
e 82 111
e 82 113
e 82 143
e 82 144
e 82 175
e 82 186
e 83 90
e 83 95
e 83 104
e 83 127
e 83 130
e 83 140
e 83 148
e 83 149
e 83 150
e 83 183
e 83 184
e 83 197
e 84 87
e 84 104
e 84 107
e 84 111
e 84 116
e 84 118
e 84 144
e 84 151
e 84 155
e 84 157
e 84 166
e 84 177
e 84 188
e 84 197
e 84 203
e 85 90
e 85 92
e 85 110
e 85 121
e 85 153
e 85 156
e 86 88
e 86 89
e 86 92
e 86 93
e 86 94
e 86 113
e 86 125
e 86 139
e 86 141
e 86 145
e 86 163
e 86 176
e 86 178
e 87 91
e 87 92
e 87 94
e 87 98
e 87 102
e 87 103
e 87 104
e 87 117
e 87 144
e 87 146
e 87 153
e 87 157
e 87 175
e 87 176
e 88 93
e 88 128
e 88 134
e 88 138
e 88 162
e 88 186
e 88 197
e 88 203
e 89 97
e 89 107
e 89 133
e 89 135
e 89 140
e 89 153
e 89 164
e 89 168
e 89 176
e 89 181
e 89 191
e 89 201
e 90 96
e 90 99
e 90 112
e 90 128
e 90 130
e 90 138
e 90 175
e 90 186
e 90 196
e 90 197
e 90 203
e 91 102
e 91 136
e 91 142
e 91 144
e 91 151
e 91 159
e 91 162
e 91 165
e 91 169
e 91 184
e 91 199
e 91 200
e 92 103
e 92 118
e 92 120
e 92 126
e 92 152
e 92 178
e 92 193
e 92 199
e 93 97
e 93 103
e 93 118
e 93 121
e 93 139
e 93 155
e 93 161
e 93 167
e 93 175
e 93 182
e 93 187
e 93 189
e 94 98
e 94 102
e 94 106
e 94 124
e 95 96
e 95 98
e 95 106
e 95 109
e 95 115
e 95 125
e 95 133
e 95 135
e 95 136
e 95 152
e 95 177
e 95 200
e 96 118
e 96 126
e 96 144
e 96 164
e 96 177
e 96 183
e 97 100
e 97 101
e 97 108
e 97 121
e 97 129
e 97 137
e 97 159
e 97 187
e 97 190
e 97 194
e 97 198
e 98 106
e 98 188
e 98 192
e 98 195
e 99 108
e 99 120
e 99 128
e 99 142
e 99 160
e 99 172
e 100 102
e 100 103
e 100 104
e 100 117
e 100 136
e 100 141
e 100 172
e 100 175
e 100 176
e 100 179
e 100 181
e 100 195
e 101 102
e 101 111
e 101 113
e 101 125
e 101 141
e 101 159
e 101 185
e 101 204
e 102 134
e 102 163
e 102 173
e 102 181
e 103 121
e 103 125
e 103 143
e 103 152
e 103 157
e 103 166
e 103 173
e 104 113
e 104 115
e 104 129
e 104 131
e 104 133
e 104 157
e 104 195
e 104 196
e 105 117
e 105 126
e 105 127
e 105 143
e 106 107
e 106 109
e 106 110
e 106 120
e 106 130
e 106 131
e 106 138
e 106 145
e 106 151
e 106 156
e 106 160
e 106 169
e 106 170
e 106 187
e 106 195
e 106 198
e 106 199
e 106 200
e 107 110
e 107 114
e 107 115
e 107 117
e 107 151
e 107 159
e 107 191
e 108 119
e 108 123
e 108 124
e 108 132
e 108 152
e 108 159
e 108 164
e 108 173
e 108 177
e 109 112
e 109 131
e 109 155
e 109 166
e 110 147
e 110 173
e 110 182
e 111 158
e 111 160
e 111 167
e 111 169
e 111 193
e 111 198
e 112 113
e 112 130
e 112 135
e 112 178
e 112 185
e 112 201
e 113 117
e 113 130
e 113 155
e 113 165
e 113 170
e 113 190
e 113 197
e 114 152
e 114 163
e 114 170
e 114 186
e 114 189
e 114 199
e 115 122
e 115 123
e 115 131
e 116 118
e 116 120
e 116 123
e 116 129
e 116 150
e 116 154
e 116 181
e 116 189
e 117 129
e 117 139
e 117 145
e 117 150
e 117 161
e 117 166
e 117 183
e 118 120
e 118 132
e 118 135
e 118 202
e 119 135
e 119 136
e 119 142
e 119 144
e 119 154
e 119 192
e 120 124
e 120 139
e 120 154
e 120 161
e 120 170
e 120 183
e 120 196
e 120 201
e 121 123
e 121 124
e 121 151
e 121 154
e 121 162
e 121 163
e 121 175
e 121 185
e 121 190
e 121 195
e 122 132
e 122 141
e 122 186
e 123 147
e 123 202
e 124 131
e 124 136
e 124 152
e 124 153
e 124 160
e 124 167
e 125 128
e 125 147
e 125 159
e 126 137
e 126 152
e 126 154
e 126 169
e 126 199
e 127 130
e 127 137
e 127 140
e 127 153
e 127 157
e 127 181
e 127 186
e 128 133
e 129 148
e 129 182
e 129 183
e 130 138
e 130 169
e 130 170
e 130 173
e 130 184
e 130 204
e 131 143
e 131 178
e 131 179
e 131 190
e 131 202
e 132 169
e 133 141
e 133 148
e 133 152
e 133 192
e 133 198
e 134 161
e 134 200
e 134 204
e 135 168
e 136 138
e 136 141
e 136 151
e 136 173
e 136 180
e 136 190
e 137 155
e 137 166
e 137 170
e 137 181
e 137 190
e 137 194
e 138 154
e 138 160
e 138 176
e 138 183
e 138 199
e 139 170
e 139 185
e 139 187
e 140 162
e 140 177
e 141 184
e 141 201
e 142 157
e 142 159
e 142 182
e 143 152
e 143 155
e 143 168
e 143 172
e 143 173
e 143 189
e 144 167
e 144 171
e 144 176
e 144 195
e 144 197
e 144 202
e 145 150
e 145 158
e 145 168
e 145 198
e 145 201
e 146 186
e 147 168
e 147 178
e 147 191
e 148 157
e 148 164
e 148 171
e 148 195
e 148 198
e 149 166
e 149 185
e 150 176
e 150 195
e 151 153
e 151 169
e 151 170
e 151 200
e 151 203
e 152 170
e 152 186
e 152 195
e 153 173
e 153 204
e 154 155
e 154 169
e 154 185
e 155 158
e 155 161
e 155 162
e 155 173
e 155 179
e 155 185
e 155 197
e 155 202
e 156 185
e 156 190
e 156 193
e 158 181
e 159 181
e 159 192
e 160 164
e 160 178
e 160 187
e 160 189
e 160 201
e 161 168
e 161 180
e 162 172
e 162 193
e 163 171
e 163 191
e 163 193
e 163 198
e 164 194
e 165 168
e 165 170
e 165 172
e 165 174
e 166 177
e 167 197
e 168 170
e 169 187
e 170 172
e 170 183
e 171 172
e 171 174
e 172 199
e 173 175
e 173 192
e 173 199
e 174 177
e 176 200
e 177 192
e 177 193
e 178 184
e 179 182
e 179 187
e 180 183
e 180 197
e 181 185
e 181 191
e 181 197
e 181 200
e 184 187
e 185 188
e 185 199
e 188 192
e 188 196
e 190 191
e 190 194
e 192 195
e 192 200
e 192 202
e 195 201
e 196 203
e 197 204
e 201 202
